8303
30, 2, 7, 42, 21, 17, 3, 18, 31, 22, 1, 32, 49, 45, 41, 19, 8, 9, 10, 43, 33, 51, 12, 11, 52, 14, 13, 47, 27, 26, 28, 25, 4, 6, 15, 5, 24, 48, 46, 37, 40, 38, 39, 36, 35, 34, 44, 16, 50, 29, 20, 23
